(set-info :smt-lib-version 2.6)
(set-logic UF)
(set-info :source |Benchmarks from the paper: "Extending Sledgehammer with SMT Solvers" by Jasmin Blanchette, Sascha Bohme, and Lawrence C. Paulson, CADE 2011.  Translated to SMT2 by Andrew Reynolds and Morgan Deters.|)
(set-info :category "industrial")
(set-info :status unknown)
(declare-sort S1 0)
(declare-sort S2 0)
(declare-sort S3 0)
(declare-sort S4 0)
(declare-sort S5 0)
(declare-sort S6 0)
(declare-sort S7 0)
(declare-sort S8 0)
(declare-sort S9 0)
(declare-sort S10 0)
(declare-sort S11 0)
(declare-sort S12 0)
(declare-sort S13 0)
(declare-sort S14 0)
(declare-sort S15 0)
(declare-sort S16 0)
(declare-sort S17 0)
(declare-sort S18 0)
(declare-sort S19 0)
(declare-sort S20 0)
(declare-sort S21 0)
(declare-sort S22 0)
(declare-fun f1 () S1)
(declare-fun f2 () S1)
(declare-fun f3 (S3 S2) S2)
(declare-fun f4 () S3)
(declare-fun f5 (S4 S5) S2)
(declare-fun f6 (S6 S2) S4)
(declare-fun f7 () S6)
(declare-fun f8 () S5)
(declare-fun f9 (S7 S5) S3)
(declare-fun f10 () S7)
(declare-fun f11 (S8 S2) S7)
(declare-fun f12 () S8)
(declare-fun f13 (S9 S2) S6)
(declare-fun f14 () S9)
(declare-fun f15 () S3)
(declare-fun f16 (S10 S2) S1)
(declare-fun f17 () S10)
(declare-fun f18 () S2)
(declare-fun f19 () S2)
(declare-fun f20 () S5)
(declare-fun f21 (S11 S2 S12) S1)
(declare-fun f22 (S13 S12) S11)
(declare-fun f23 (S14 S5) S13)
(declare-fun f24 (S15 S11) S14)
(declare-fun f25 () S15)
(declare-fun f26 () S11)
(declare-fun f27 () S12)
(declare-fun f28 () S12)
(declare-fun f29 (S16 S12) S12)
(declare-fun f30 (S17 S12) S16)
(declare-fun f31 () S17)
(declare-fun f32 (S11 S5) S12)
(declare-fun f33 () S4)
(declare-fun f34 (S11 S18 S19) S1)
(declare-fun f35 (S20 S18) S18)
(declare-fun f36 (S21 S3) S20)
(declare-fun f37 () S21)
(declare-fun f38 () S3)
(declare-fun f39 (S10 S18) S1)
(declare-fun f40 (S22 S2) S5)
(declare-fun f41 () S22)
(declare-fun f42 () S9)
(assert (not (= f1 f2)))
(assert (forall ((?v0 S2)) (= (f3 f4 ?v0) (f5 (f6 f7 ?v0) f8))))
(assert (forall ((?v0 S5) (?v1 S2)) (= (f3 (f9 f10 ?v0) ?v1) (f5 (f6 f7 ?v1) ?v0))))
(assert (forall ((?v0 S2) (?v1 S5) (?v2 S2)) (= (f3 (f9 (f11 f12 ?v0) ?v1) ?v2) (f5 (f6 (f13 f14 ?v2) ?v0) ?v1))))
(assert (forall ((?v0 S2)) (= (f3 f15 ?v0) ?v0)))
(assert (not (= (f16 f17 (f5 (f6 (f13 f14 f18) f19) f20)) f1)))
(assert (= (f21 (f22 (f23 (f24 f25 f26) f20) f27) f18 f28) f1))
(assert (= (f16 f17 f19) f1))
(assert (= (f21 f26 f19 f27) f1))
(assert (= (f16 f17 f18) f1))
(assert (= (f16 f17 f18) f1))
(assert (forall ((?v0 S12) (?v1 S12) (?v2 S2) (?v3 S11) (?v4 S5) (?v5 S12) (?v6 S2)) (=> (= f27 (f29 (f30 f31 ?v0) ?v1)) (=> (= (f16 f17 ?v2) f1) (=> (= (f21 (f22 (f23 (f24 f25 ?v3) ?v4) ?v0) ?v2 ?v5) f1) (=> (= (f16 f17 ?v6) f1) (=> (= (f21 ?v3 ?v6 ?v0) f1) (= (f16 f17 (f5 (f6 (f13 f14 ?v2) ?v6) ?v4)) f1))))))))
(assert (forall ((?v0 S12) (?v1 S12) (?v2 S2) (?v3 S11) (?v4 S5) (?v5 S12) (?v6 S2)) (=> (= f27 (f29 (f30 f31 ?v0) ?v1)) (=> (= (f16 f17 ?v2) f1) (=> (= (f21 (f22 (f23 (f24 f25 ?v3) ?v4) ?v1) ?v2 ?v5) f1) (=> (= (f16 f17 ?v6) f1) (=> (= (f21 ?v3 ?v6 ?v1) f1) (= (f16 f17 (f5 (f6 (f13 f14 ?v2) ?v6) ?v4)) f1))))))))
(assert (forall ((?v0 S11) (?v1 S2) (?v2 S12) (?v3 S11) (?v4 S2) (?v5 S12) (?v6 S5)) (=> (= (f21 ?v0 ?v1 ?v2) f1) (=> (= (f21 ?v3 ?v4 ?v5) f1) (=> (= ?v0 (f22 (f23 (f24 f25 ?v3) ?v6) ?v5)) (= (f21 ?v3 (f5 (f6 (f13 f14 ?v1) ?v4) ?v6) ?v2) f1))))))
(assert (forall ((?v0 S5) (?v1 S5) (?v2 S11) (?v3 S12)) (=> (= ?v0 ?v1) (= (f32 (f22 (f23 (f24 f25 ?v2) ?v0) ?v3) ?v1) ?v3))))
(assert (forall ((?v0 S2) (?v1 S5) (?v2 S5)) (=> (= (f16 f17 ?v0) f1) (= (f16 f17 (f5 (f6 (f13 f14 ?v0) (f5 f33 ?v1)) ?v2)) f1))))
(assert (forall ((?v0 S11) (?v1 S2) (?v2 S12) (?v3 S5) (?v4 S12)) (=> (= (f21 ?v0 ?v1 ?v2) f1) (= (f21 (f22 (f23 (f24 f25 ?v0) ?v3) ?v4) (f5 (f6 f7 ?v1) ?v3) ?v2) f1))))
(assert (forall ((?v0 S2) (?v1 S5)) (=> (= (f16 f17 ?v0) f1) (= (f16 f17 (f5 (f6 f7 ?v0) ?v1)) f1))))
(assert (forall ((?v0 S11) (?v1 S2) (?v2 S12) (?v3 S5) (?v4 S18) (?v5 S19)) (=> (= (f21 ?v0 ?v1 ?v2) f1) (=> (= (f34 (f22 (f23 (f24 f25 ?v0) ?v3) ?v2) ?v4 ?v5) f1) (= (f34 ?v0 (f35 (f36 f37 (f9 (f11 f12 ?v1) ?v3)) ?v4) ?v5) f1)))))
(assert (forall ((?v0 S5)) (= (f16 f17 (f5 f33 ?v0)) f1)))
(assert (forall ((?v0 S2)) (=> (= (f16 f17 ?v0) f1) (= (f16 f17 (f3 f38 ?v0)) f1))))
(assert (forall ((?v0 S11) (?v1 S5) (?v2 S12)) (=> (= (f32 ?v0 ?v1) ?v2) (= (f21 ?v0 (f5 f33 ?v1) ?v2) f1))))
(assert (forall ((?v0 S11) (?v1 S5) (?v2 S12)) (=> (= (f21 ?v0 (f5 f33 ?v1) ?v2) f1) (=> (=> (= (f32 ?v0 ?v1) ?v2) false) false))))
(assert (forall ((?v0 S12) (?v1 S12) (?v2 S12) (?v3 S12)) (= (= (f29 (f30 f31 ?v0) ?v1) (f29 (f30 f31 ?v2) ?v3)) (and (= ?v0 ?v2) (= ?v1 ?v3)))))
(assert (forall ((?v0 S11) (?v1 S18) (?v2 S19) (?v3 S5) (?v4 S12)) (=> (= (f34 ?v0 ?v1 ?v2) f1) (= (f34 (f22 (f23 (f24 f25 ?v0) ?v3) ?v4) (f35 (f36 f37 (f9 f10 ?v3)) ?v1) ?v2) f1))))
(assert (forall ((?v0 S2) (?v1 S5) (?v2 S2)) (= (f5 (f6 (f13 f14 (f5 (f6 f7 ?v0) ?v1)) ?v2) ?v1) ?v0)))
(assert (forall ((?v0 S5) (?v1 S2)) (= (f5 (f6 (f13 f14 (f5 f33 ?v0)) ?v1) ?v0) ?v1)))
(assert (forall ((?v0 S2) (?v1 S5)) (not (= (f3 f38 ?v0) (f5 f33 ?v1)))))
(assert (forall ((?v0 S5) (?v1 S2)) (not (= (f5 f33 ?v0) (f3 f38 ?v1)))))
(assert (forall ((?v0 S11) (?v1 S12) (?v2 S2) (?v3 S12)) (=> (= (f21 (f22 (f23 (f24 f25 ?v0) f8) ?v1) ?v2 ?v3) f1) (= (f21 ?v0 (f3 f38 ?v2) (f29 (f30 f31 ?v1) ?v3)) f1))))
(assert (forall ((?v0 S18)) (= (f35 (f36 f37 f15) ?v0) ?v0)))
(assert (forall ((?v0 S11) (?v1 S2) (?v2 S12)) (=> (= (f21 ?v0 (f3 f38 ?v1) ?v2) f1) (=> (forall ((?v3 S12) (?v4 S12)) (=> (= ?v2 (f29 (f30 f31 ?v3) ?v4)) (=> (= (f21 (f22 (f23 (f24 f25 ?v0) f8) ?v3) ?v1 ?v4) f1) false))) false))))
(assert (forall ((?v0 S2) (?v1 S2)) (= (= (f3 f38 ?v0) (f3 f38 ?v1)) (= ?v0 ?v1))))
(assert (forall ((?v0 S5) (?v1 S5)) (= (= (f5 f33 ?v0) (f5 f33 ?v1)) (= ?v0 ?v1))))
(assert (forall ((?v0 S11) (?v1 S2) (?v2 S12)) (=> (= (f21 ?v0 (f3 f38 ?v1) ?v2) f1) (=> (forall ((?v3 S12) (?v4 S12)) (=> (= (f21 (f22 (f23 (f24 f25 ?v0) f8) ?v3) ?v1 ?v4) f1) false)) false))))
(assert (forall ((?v0 S18)) (=> (= (f39 f17 ?v0) f1) (= (f39 f17 (f35 (f36 f37 f4) ?v0)) f1))))
(assert (forall ((?v0 S5)) (= (f40 f41 (f5 f33 ?v0)) f8)))
(assert (forall ((?v0 S2) (?v1 S2)) (= (f5 (f6 (f13 f42 ?v0) ?v1) f8) (f5 (f6 (f13 f14 ?v0) ?v1) f8))))
(check-sat)
(exit)
